n = 49;
k = 5;
roles = [
{m, d},
{m, f},
{f, m},
{m, g},
{m, f},
{m, f},
{f, g},
{g, m},
{d, m},
{d, m},
{m, g},
{d, f},
{m, g},
{g, m},
{m, g},
{f, m},
{g, f},
{d, m},
{g, f},
{m, g},
{g, m},
{d, f},
{d, m},
{g, d},
{g, d},
{g, f},
{f, m},
{m, g},
{m, g},
{f, d},
{d, g},
{d, m},
{d, m},
{f, g},
{d, g},
{f, d},
{m, f},
{d, f},
{f, d},
{m, f},
{m, f},
{f, g},
{f, g},
{g, d},
{g, f},
{d, g},
{f, m},
{m, f},
{g, m}
];
num_pairs = 5;
player1 = [12, 47, 34, 29, 4];
player2 = [15, 7, 49, 14, 18];
